c Real-world animal interaction network data sets. Animal interaction data from published studies of wild, captive, and domesticated animals.
p edge 56 1134
e 35 14
e 35 36
e 35 1
e 35 3
e 35 38
e 35 51
e 35 5
e 35 37
e 35 39
e 35 47
e 35 7
e 35 40
e 35 8
e 35 9
e 35 41
e 35 25
e 35 42
e 35 11
e 35 12
e 35 13
e 35 10
e 35 44
e 35 15
e 35 16
e 35 45
e 35 18
e 35 48
e 35 19
e 35 20
e 35 21
e 35 17
e 35 29
e 35 23
e 35 28
e 35 24
e 35 50
e 35 27
e 35 49
e 35 2
e 35 43
e 35 4
e 35 54
e 35 55
e 35 46
e 35 30
e 35 31
e 35 56
e 35 32
e 35 33
e 35 34
e 36 1
e 36 38
e 36 51
e 36 5
e 36 37
e 36 39
e 36 47
e 36 7
e 36 40
e 36 9
e 36 41
e 36 25
e 36 42
e 36 11
e 36 13
e 36 10
e 36 44
e 36 15
e 36 18
e 36 45
e 36 48
e 36 19
e 36 20
e 36 21
e 36 17
e 36 29
e 36 23
e 36 28
e 36 50
e 36 27
e 36 49
e 36 2
e 36 43
e 36 53
e 36 4
e 36 54
e 36 30
e 36 31
e 36 56
e 36 33
e 36 34
e 1 44
e 1 3
e 1 38
e 1 51
e 1 29
e 1 7
e 1 8
e 1 9
e 1 47
e 1 25
e 1 11
e 1 12
e 1 10
e 1 15
e 1 18
e 1 45
e 1 24
e 1 48
e 1 19
e 1 20
e 1 17
e 1 23
e 1 28
e 1 50
e 1 27
e 1 49
e 1 52
e 1 14
e 1 43
e 1 53
e 1 4
e 1 54
e 1 46
e 1 30
e 1 31
e 1 56
e 1 33
e 1 34
e 3 51
e 3 4
e 3 7
e 3 40
e 3 8
e 3 9
e 3 41
e 3 25
e 3 43
e 3 12
e 3 13
e 3 10
e 3 16
e 3 45
e 3 18
e 3 48
e 3 19
e 3 20
e 3 21
e 3 17
e 3 23
e 3 24
e 3 50
e 3 27
e 3 28
e 3 52
e 3 2
e 3 11
e 3 53
e 3 29
e 3 54
e 3 55
e 3 46
e 3 30
e 3 31
e 3 56
e 3 32
e 3 33
e 3 34
e 38 51
e 38 5
e 38 37
e 38 39
e 38 7
e 38 40
e 38 9
e 38 25
e 38 42
e 38 11
e 38 13
e 38 10
e 38 44
e 38 15
e 38 18
e 38 45
e 38 24
e 38 48
e 38 19
e 38 20
e 38 21
e 38 23
e 38 50
e 38 27
e 38 28
e 38 2
e 38 43
e 38 29
e 38 54
e 38 46
e 38 30
e 38 31
e 38 32
e 38 34
e 51 44
e 51 46
e 51 5
e 51 37
e 51 39
e 51 7
e 51 40
e 51 8
e 51 9
e 51 41
e 51 25
e 51 42
e 51 11
e 51 12
e 51 13
e 51 14
e 51 15
e 51 16
e 51 45
e 51 4
e 51 18
e 51 48
e 51 19
e 51 21
e 51 17
e 51 10
e 51 23
e 51 24
e 51 50
e 51 27
e 51 28
e 51 52
e 51 2
e 51 53
e 51 29
e 51 54
e 51 55
e 51 30
e 51 31
e 51 56
e 51 32
e 51 33
e 51 34
e 5 44
e 5 37
e 5 39
e 5 40
e 5 9
e 5 41
e 5 25
e 5 42
e 5 43
e 5 10
e 5 15
e 5 18
e 5 45
e 5 48
e 5 21
e 5 17
e 5 23
e 5 50
e 5 49
e 5 52
e 5 14
e 5 53
e 5 47
e 5 54
e 5 55
e 5 30
e 5 31
e 5 32
e 5 33
e 5 34
e 37 39
e 37 7
e 37 40
e 37 9
e 37 41
e 37 42
e 37 11
e 37 14
e 37 44
e 37 15
e 37 18
e 37 45
e 37 48
e 37 21
e 37 23
e 37 28
e 37 50
e 37 49
e 37 52
e 37 43
e 37 47
e 37 54
e 37 55
e 37 30
e 37 31
e 37 32
e 37 33
e 37 34
e 39 29
e 39 47
e 39 7
e 39 40
e 39 9
e 39 41
e 39 25
e 39 42
e 39 11
e 39 13
e 39 10
e 39 44
e 39 15
e 39 18
e 39 45
e 39 16
e 39 48
e 39 19
e 39 20
e 39 21
e 39 23
e 39 28
e 39 50
e 39 49
e 39 52
e 39 2
e 39 43
e 39 53
e 39 4
e 39 54
e 39 46
e 39 30
e 39 31
e 39 32
e 39 33
e 39 34
e 47 44
e 47 46
e 47 40
e 47 9
e 47 42
e 47 11
e 47 13
e 47 10
e 47 15
e 47 16
e 47 18
e 47 19
e 47 21
e 47 23
e 47 28
e 47 50
e 47 49
e 47 29
e 47 33
e 7 8
e 7 9
e 7 41
e 7 25
e 7 11
e 7 12
e 7 13
e 7 10
e 7 44
e 7 16
e 7 45
e 7 18
e 7 48
e 7 19
e 7 20
e 7 21
e 7 17
e 7 23
e 7 24
e 7 14
e 7 27
e 7 28
e 7 2
e 7 43
e 7 53
e 7 4
e 7 54
e 7 55
e 7 46
e 7 30
e 7 31
e 7 56
e 7 32
e 7 33
e 7 34
e 40 9
e 40 41
e 40 42
e 40 11
e 40 12
e 40 13
e 40 14
e 40 44
e 40 15
e 40 18
e 40 45
e 40 20
e 40 21
e 40 28
e 40 50
e 40 49
e 40 43
e 40 53
e 40 29
e 40 54
e 40 30
e 40 31
e 40 56
e 40 33
e 40 34
e 8 4
e 8 41
e 8 25
e 8 43
e 8 12
e 8 13
e 8 14
e 8 15
e 8 16
e 8 45
e 8 24
e 8 48
e 8 19
e 8 20
e 8 17
e 8 10
e 8 23
e 8 28
e 8 50
e 8 27
e 8 49
e 8 2
e 8 11
e 8 53
e 8 29
e 8 54
e 8 55
e 8 46
e 8 30
e 8 31
e 8 56
e 8 33
e 8 34
e 9 41
e 9 25
e 9 42
e 9 11
e 9 12
e 9 13
e 9 14
e 9 44
e 9 15
e 9 16
e 9 45
e 9 18
e 9 48
e 9 19
e 9 20
e 9 21
e 9 10
e 9 23
e 9 28
e 9 24
e 9 50
e 9 27
e 9 49
e 9 2
e 9 43
e 9 53
e 9 29
e 9 54
e 9 46
e 9 30
e 9 31
e 9 32
e 9 33
e 9 34
e 41 44
e 41 25
e 41 42
e 41 13
e 41 10
e 41 15
e 41 16
e 41 45
e 41 4
e 41 18
e 41 48
e 41 19
e 41 20
e 41 21
e 41 23
e 41 49
e 41 50
e 41 28
e 41 52
e 41 53
e 41 29
e 41 55
e 41 46
e 41 30
e 41 31
e 41 56
e 41 32
e 41 33
e 41 34
e 25 44
e 25 42
e 25 11
e 25 12
e 25 13
e 25 14
e 25 16
e 25 45
e 25 4
e 25 24
e 25 48
e 25 19
e 25 20
e 25 21
e 25 17
e 25 10
e 25 23
e 25 28
e 25 50
e 25 27
e 25 49
e 25 52
e 25 2
e 25 43
e 25 53
e 25 29
e 25 54
e 25 55
e 25 46
e 25 30
e 25 31
e 25 56
e 25 32
e 25 33
e 25 34
e 42 44
e 42 11
e 42 13
e 42 15
e 42 18
e 42 45
e 42 16
e 42 48
e 42 20
e 42 21
e 42 17
e 42 22
e 42 23
e 42 50
e 42 28
e 42 2
e 42 54
e 42 55
e 42 46
e 42 30
e 42 56
e 42 32
e 42 33
e 42 34
e 11 44
e 11 43
e 11 12
e 11 13
e 11 10
e 11 15
e 11 16
e 11 45
e 11 18
e 11 48
e 11 19
e 11 20
e 11 21
e 11 17
e 11 29
e 11 23
e 11 28
e 11 24
e 11 14
e 11 50
e 11 27
e 11 49
e 11 52
e 11 2
e 11 53
e 11 4
e 11 54
e 11 55
e 11 46
e 11 30
e 11 31
e 11 56
e 11 32
e 11 33
e 11 34
e 12 4
e 12 43
e 12 13
e 12 10
e 12 16
e 12 45
e 12 18
e 12 48
e 12 19
e 12 20
e 12 21
e 12 17
e 12 28
e 12 24
e 12 26
e 12 50
e 12 27
e 12 49
e 12 52
e 12 2
e 12 53
e 12 6
e 12 54
e 12 55
e 12 46
e 12 30
e 12 31
e 12 56
e 12 32
e 12 33
e 12 14
e 13 10
e 13 44
e 13 16
e 13 45
e 13 18
e 13 48
e 13 19
e 13 20
e 13 21
e 13 17
e 13 29
e 13 23
e 13 24
e 13 50
e 13 27
e 13 28
e 13 52
e 13 43
e 13 53
e 13 4
e 13 54
e 13 55
e 13 46
e 13 30
e 13 31
e 13 56
e 13 32
e 13 33
e 13 34
e 10 14
e 10 44
e 10 15
e 10 16
e 10 45
e 10 18
e 10 48
e 10 19
e 10 20
e 10 21
e 10 17
e 10 29
e 10 23
e 10 28
e 10 24
e 10 50
e 10 27
e 10 49
e 10 52
e 10 2
e 10 43
e 10 53
e 10 4
e 10 54
e 10 55
e 10 46
e 10 30
e 10 31
e 10 56
e 10 32
e 10 33
e 10 34
e 44 43
e 44 16
e 44 45
e 44 24
e 44 48
e 44 19
e 44 20
e 44 21
e 44 17
e 44 29
e 44 23
e 44 28
e 44 50
e 44 27
e 44 49
e 44 52
e 44 2
e 44 53
e 44 4
e 44 54
e 44 55
e 44 46
e 44 30
e 44 31
e 44 56
e 44 32
e 44 33
e 44 34
e 15 18
e 15 45
e 15 16
e 15 48
e 15 19
e 15 20
e 15 21
e 15 23
e 15 50
e 15 49
e 15 52
e 15 14
e 15 29
e 15 30
e 15 32
e 15 33
e 15 34
e 16 45
e 16 24
e 16 48
e 16 19
e 16 20
e 16 21
e 16 17
e 16 29
e 16 23
e 16 14
e 16 26
e 16 27
e 16 28
e 16 2
e 16 6
e 16 53
e 16 4
e 16 54
e 16 55
e 16 46
e 16 30
e 16 31
e 16 56
e 16 32
e 16 33
e 16 34
e 45 18
e 45 48
e 45 20
e 45 21
e 45 17
e 45 23
e 45 28
e 45 14
e 45 50
e 45 27
e 45 49
e 45 2
e 45 53
e 45 29
e 45 46
e 45 30
e 45 31
e 45 56
e 45 32
e 45 33
e 45 34
e 18 14
e 18 43
e 18 24
e 18 48
e 18 21
e 18 23
e 18 28
e 18 50
e 18 49
e 18 52
e 18 2
e 18 53
e 18 29
e 18 54
e 18 55
e 18 46
e 18 30
e 18 56
e 18 32
e 18 33
e 18 34
e 48 19
e 48 20
e 48 17
e 48 23
e 48 49
e 48 24
e 48 14
e 48 50
e 48 27
e 48 28
e 48 52
e 48 2
e 48 43
e 48 53
e 48 4
e 48 54
e 48 55
e 48 46
e 48 30
e 48 31
e 48 56
e 48 32
e 48 33
e 48 34
e 19 24
e 19 20
e 19 21
e 19 6
e 19 17
e 19 29
e 19 23
e 19 14
e 19 26
e 19 50
e 19 27
e 19 28
e 19 52
e 19 2
e 19 43
e 19 53
e 19 4
e 19 54
e 19 55
e 19 46
e 19 30
e 19 31
e 19 56
e 19 32
e 19 33
e 19 34
e 20 46
e 20 24
e 20 6
e 20 17
e 20 29
e 20 23
e 20 49
e 20 14
e 20 26
e 20 50
e 20 27
e 20 28
e 20 2
e 20 43
e 20 53
e 20 4
e 20 54
e 20 55
e 20 30
e 20 31
e 20 56
e 20 32
e 20 33
e 20 34
e 21 23
e 21 49
e 21 14
e 21 50
e 21 27
e 21 28
e 21 52
e 21 2
e 21 43
e 21 53
e 21 29
e 21 55
e 21 46
e 21 30
e 21 31
e 21 56
e 21 32
e 21 33
e 21 34
e 6 27
e 6 4
e 6 46
e 6 30
e 6 31
e 6 24
e 6 26
e 17 29
e 17 24
e 17 23
e 17 26
e 17 50
e 17 27
e 17 28
e 17 52
e 17 2
e 17 43
e 17 53
e 17 4
e 17 54
e 17 55
e 17 46
e 17 30
e 17 31
e 17 56
e 17 32
e 17 33
e 17 14
e 23 29
e 23 49
e 23 14
e 23 50
e 23 27
e 23 28
e 23 52
e 23 2
e 23 43
e 23 53
e 23 4
e 23 54
e 23 55
e 23 46
e 23 30
e 23 31
e 23 56
e 23 32
e 23 33
e 23 34
e 49 2
e 49 24
e 49 29
e 49 50
e 49 28
e 49 52
e 49 14
e 49 43
e 49 53
e 49 4
e 49 54
e 49 30
e 49 56
e 49 33
e 49 34
e 14 43
e 14 24
e 14 50
e 14 27
e 14 28
e 14 52
e 14 2
e 14 53
e 14 4
e 14 54
e 14 55
e 14 46
e 14 30
e 14 31
e 14 56
e 14 32
e 14 33
e 14 34
e 24 26
e 24 27
e 24 28
e 24 2
e 24 53
e 24 4
e 24 54
e 24 55
e 24 30
e 24 31
e 24 56
e 24 32
e 24 33
e 24 34
e 26 27
e 26 4
e 26 46
e 26 31
e 50 28
e 50 2
e 50 53
e 50 29
e 50 54
e 50 30
e 50 56
e 50 33
e 50 34
e 27 29
e 27 28
e 27 2
e 27 43
e 27 53
e 27 4
e 27 54
e 27 55
e 27 46
e 27 30
e 27 31
e 27 56
e 27 32
e 27 33
e 27 34
e 28 29
e 28 52
e 28 2
e 28 43
e 28 53
e 28 4
e 28 54
e 28 55
e 28 46
e 28 30
e 28 31
e 28 56
e 28 32
e 28 33
e 28 34
e 52 29
e 52 2
e 52 43
e 52 4
e 52 55
e 52 46
e 52 30
e 52 31
e 52 32
e 52 33
e 52 34
e 2 53
e 2 4
e 2 54
e 2 55
e 2 46
e 2 30
e 2 31
e 2 56
e 2 32
e 2 33
e 2 34
e 29 43
e 29 53
e 29 4
e 29 54
e 29 55
e 29 46
e 29 30
e 29 31
e 29 56
e 29 33
e 29 34
e 43 46
e 43 54
e 43 30
e 43 31
e 43 32
e 43 34
e 53 4
e 53 54
e 53 46
e 53 30
e 53 31
e 53 56
e 53 32
e 53 33
e 53 34
e 4 54
e 4 55
e 4 46
e 4 30
e 4 31
e 4 56
e 4 32
e 4 33
e 54 55
e 54 46
e 54 30
e 54 31
e 54 56
e 54 32
e 54 33
e 54 34
e 55 46
e 55 30
e 55 31
e 55 56
e 55 32
e 55 33
e 46 30
e 46 31
e 46 56
e 46 32
e 46 33
e 46 34
e 30 31
e 30 56
e 30 32
e 30 33
e 31 56
e 31 32
e 31 33
e 31 34
e 56 32
e 56 33
e 56 34
e 32 33
e 32 34
e 33 34
